NAME : instances/50-tsp/instance-12.tsp
COMMENT : No comment
TYPE : TSP
DIMENSION: 50
EDGE_WEIGHT_TYPE : EUC_2D
NODE_COORD_SECTION
1 393 922 
2 797 593 
3 71 981 
4 1346 1523 
5 1846 1853 
6 1211 1870 
7 1970 32 
8 464 713 
9 1719 706 
10 1589 563 
11 222 49 
12 1995 88 
13 457 1893 
14 1009 1906 
15 1613 1382 
16 844 911 
17 1656 1820 
18 1254 993 
19 1684 824 
20 269 1733 
21 395 22 
22 1065 352 
23 404 499 
24 575 633 
25 976 1241 
26 1909 689 
27 387 110 
28 1151 1217 
29 1854 1196 
30 1966 1567 
31 765 1907 
32 1762 831 
33 174 473 
34 1278 702 
35 771 843 
36 1113 1947 
37 1647 850 
38 213 466 
39 1621 1848 
40 1455 1521 
41 892 607 
42 1072 1279 
43 895 19 
44 1579 1346 
45 1241 1306 
46 930 1795 
47 1146 426 
48 552 1776 
49 1791 831 
50 356 1792 
EOF
